Gurobi 12.0.1:   lim:time = 14400
  mip:bestbound = 1
Set parameter LogToConsole to value 1
  tech:outlev = 1
Set parameter InfUnbdInfo to value 1
Gurobi Optimizer version 12.0.1 build v12.0.1rc0 (win64 - Windows 11.0 (26100.2))

CPU model: Intel(R) Core(TM) i7-10700 CPU @ 2.90GHz, instruction set [SSE2|AVX|AVX2]
Thread count: 8 physical cores, 16 logical processors, using up to 16 threads

Non-default parameters:
TimeLimit  14400
InfUnbdInfo  1

Optimize a model with 215 rows, 284 columns and 1423 nonzeros
Model fingerprint: 0xb5e9d92c
Model has 3 quadratic objective terms
Model has 8 quadratic constraints
Variable types: 24 continuous, 260 integer (0 binary)
Coefficient statistics:
  Matrix range     [1e+00, 1e+05]
  QMatrix range    [1e+00, 1e+00]
  QLMatrix range   [1e+00, 2e+01]
  Objective range  [9e+00, 1e+02]
  QObjective range [1e+00, 1e+00]
  Bounds range     [1e+00, 9e+01]
  RHS range        [1e+00, 1e+05]
  QRHS range       [1e+02, 1e+02]
Presolve removed 14 rows and 31 columns
Presolve time: 0.01s
Presolved: 355 rows, 399 columns, 2113 nonzeros
Variable types: 12 continuous, 387 integer (307 binary)
Found heuristic solution: objective 184.2500000

Root relaxation: objective 1.010287e+02, 50 iterations, 0.00 seconds (0.00 work units)

    Nodes    |    Current Node    |     Objective Bounds      |     Work
 Expl Unexpl |  Obj  Depth IntInf | Incumbent    BestBd   Gap | It/Node Time

     0     0  101.02866    0   16  184.25000  101.02866  45.2%     -    0s
H    0     0                     178.9400000  101.02866  43.5%     -    0s
     0     0  112.56181    0   21  178.94000  112.56181  37.1%     -    0s
     0     0  119.03333    0   18  178.94000  119.03333  33.5%     -    0s
     0     0  126.02333    0   19  178.94000  126.02333  29.6%     -    0s
     0     0  126.02333    0   19  178.94000  126.02333  29.6%     -    0s
     0     0  128.12000    0    7  178.94000  128.12000  28.4%     -    0s
     0     0  128.12000    0   16  178.94000  128.12000  28.4%     -    0s
     0     0  128.12000    0    6  178.94000  128.12000  28.4%     -    0s
     0     0  128.12000    0    6  178.94000  128.12000  28.4%     -    0s
     0     0  128.12835    0    6  178.94000  128.12835  28.4%     -    0s
     0     0  128.18127    0    6  178.94000  128.18127  28.4%     -    0s
     0     0  128.18127    0   16  178.94000  128.18127  28.4%     -    0s
H    0     0                     169.9800000  128.18127  24.6%     -    0s
     0     0  128.18127    0    6  169.98000  128.18127  24.6%     -    0s
     0     0  128.18127    0    6  169.98000  128.18127  24.6%     -    0s
     0     0  128.18127    0    6  169.98000  128.18127  24.6%     -    0s
     0     2  128.18127    0    6  169.98000  128.18127  24.6%     -    0s

Cutting planes:
  Learned: 2
  Gomory: 6
  Implied bound: 4
  Clique: 1
  MIR: 2
  RLT: 2

Explored 86 nodes (767 simplex iterations) in 0.19 seconds (0.08 work units)
Thread count was 16 (of 16 available processors)

Solution count 3: 169.98 178.94 184.25 

Optimal solution found (tolerance 1.00e-04)
Best objective 1.699800000000e+02, best bound 1.699800000000e+02, gap 0.0000%

AMPL MP initial flat model has 284 variables (0 integer, 260 binary);
Objectives: 1 quadratic; 
Constraints:  215 linear; 8 quadratic;

AMPL MP final model has 284 variables (0 integer, 260 binary);
Objectives: 1 quadratic; 
Constraints:  215 linear; 8 quadratic;


-----RESULTS INFO-----
running_time:  0.266
TC.best_bound:  169.98
TC:  169.98000000000002
MIP Gap (%):  1.6720619737853868e-14
=== Vehicle Routes ===
Vehicle 1: 0 → 1
Vehicle 1: 1 → 2
Vehicle 1: 2 → 7
Vehicle 1: 7 → 11
Vehicle 1: 11 → 15
Vehicle 2: 0 → 15

=== Full Vehicle Routes ===
Vehicle 1: 0 → 1 → 2 → 7 → 11 → 0 (72<100)
Vehicle 2: 0 → 0 (0<100)
Arc used by MRT line: y variables:
MRT used: 7 → 8
MRT used: 11 → 12
Customer assigment to PL: u variables:
3 8
4 8
5 12
6 8
Node is served by regular vehicle: g variables:
1
2
7
11
Customer assigment to Home delivery: gm variables:
1
2
Node total demands: ntd variables:
1 16 1
2 12 1
5 0 0
6 0 0
13 0 0
14 0 0
7 20 1
8 0 0
9 0 0
10 0 0
11 24 1
12 0 0
Customer's demand delivered to PL: l variables:
3
4
5
6
Lockers load <= capacity:
0 <= 90
0 <= 96
0 <= 84
20 <= 91
0 <= 81
0 <= 78
0 <= 75
24 <= 89
